164 300 133 197 120 156 180 170 168 147 119 154 184 189 140 171 129 190 184 161 156 117 153 182 190 135 192 103 136 176 105 181 193 138 177 113 160 122 149 128 169 135 148 119 190 188 156 118 178 139 145 200 123 198 147 112 200 139 115 135 181 187 182 173 191 158 152 151 147 168 145 115 102 193 100 192 146 157 176 190 162 120 190 185 184 136 197 183 141 179 185 121 131 166 161 122 191 112 173 137 146 184 118 114 176 119 172 188 142 147 178 170 133 133 155 117 169 117 166 177 162 116 198 194 183 158 115 173 137 154 176 149 137 194 164 179 179 135 132 187 149 109 157 148 142 178 131 178 195 198 154 123 180 117 116 162 176 198 100 179 117 176 127 120 136 191 